Version identifier: 22.1.1.0 | 2022-11-28 | 9160aff4d
CPXPARAM_ClockType                               1
CPXPARAM_Read_DataCheck                          1
CPXPARAM_Threads                                 1
CPXPARAM_TimeLimit                               7200
CPXPARAM_MIP_Tolerances_AbsMIPGap                0
CPXPARAM_MIP_Tolerances_MIPGap                   0
CPXPARAM_MIP_Tolerances_Integrality              0
Tried aggregator 1 time.
MIP Presolve eliminated 12 rows and 4 columns.
MIP Presolve modified 8 coefficients.
Reduced MIP has 35234 rows, 14996 columns, and 123686 nonzeros.
Reduced MIP has 14996 binaries, 0 generals, 0 SOSs, and 0 indicators.
Presolve time = 0.12 sec. (56.56 ticks)
Probing time = 0.03 sec. (7.97 ticks)
Tried aggregator 1 time.
Detecting symmetries...
MIP Presolve eliminated 0 rows and 3 columns.
MIP Presolve modified 9 coefficients.
Reduced MIP has 35234 rows, 14993 columns, and 123682 nonzeros.
Reduced MIP has 14993 binaries, 0 generals, 0 SOSs, and 0 indicators.
Presolve time = 0.24 sec. (105.55 ticks)
Probing time = 0.03 sec. (7.98 ticks)
Clique table members: 10841.
MIP emphasis: balance optimality and feasibility.
MIP search method: dynamic search.
Parallel mode: none, using 1 thread.
Root relaxation solution time = 159.92 sec. (96761.29 ticks)

        Nodes                                         Cuts/
   Node  Left     Objective  IInf  Best Integer    Best Bound    ItCnt     Gap

      0     0     6000.0000  4404                   6000.0000    62206         
      0     0     6000.0000  6149                   Cuts: 913   306115         
      0     0     6000.0000  6251                   Cuts: 879   644512         
Heuristic still looking.
Heuristic still looking.
Detecting symmetries...
      0     2     6000.0000  6251                   6000.0000   644512         
Elapsed time = 5994.23 sec. (3172426.39 ticks, tree = 0.01 MB, solutions = 0)
      1     3     6000.0000  6116                   6000.0000  1020436         

Zero-half cuts applied:  445
Lift and project cuts applied:  3

Root node processing (before b&c):
  Real time             = 5994.20 sec. (3172414.18 ticks)
Sequential b&c:
  Real time             = 1205.83 sec. (662300.72 ticks)
                          ------------
Total (root+branch&cut) = 7200.03 sec. (3834714.90 ticks)
Solution is infeasible.

---------------------
@@@ MIP_time_limit_infeasible
Traceback (most recent call last):
  File "/scratch/scherif/DiverseSAT-journal_sup/DiverseSAT_Supplementary_Experiments/experiment-1/cplex/jobs/../solvers/CPLEX-DW-SE.py", line 104, in <module>
    print(f">>> Benchmark {os.path.basename(cnf_file)} k {k} OPT {int(prob.solution.get_objective_value())}"
  File "/users/scherif/.local/lib/python3.9/site-packages/cplex/_internal/_subinterfaces.py", line 7211, in get_objective_value
    return CPX_PROC.getobjval(self._env._e, self._cplex._lp)
  File "/users/scherif/.local/lib/python3.9/site-packages/cplex/_internal/_procedural.py", line 2055, in getobjval
    check_status(env, status)
  File "/users/scherif/.local/lib/python3.9/site-packages/cplex/_internal/_procedural.py", line 249, in __call__
    raise CplexSolverError(error_string, env, status)
cplex.exceptions.errors.CplexSolverError: CPLEX Error  1217: No solution exists.
